Maximize
  39406.3441826171 C0(5) + 155386.1606979926 C1(15)
   + 167470.0695191427 C2(15) - 45.2745870439 C3(1)
   + 49066.01367124768 C4(4) + 125395.5761029329 C5(13)
   + 143373.6497212339 C6(15) + 35732.876726917 C7(4)
   + 114684.4394668098 C8(12) + 124300.9707330658 C9(13)
   + 106389.3932533855 C10(12) + 59677.90601870869 C11(6)
   + 124389.6413879557 C12(12) + 62166.71488946378 C13(7)
   + 25059.4932853483 C14(3) + 38261.32863716742 C15(4)
   + 76519.06268140121 C16(7) + 37050.12261065721 C17(4)
   + 13121.2581445403 C18(2) + 22721.13973423611 C19(3)
   + 54940.35958623653 C20(6) + 27471.84819723154 C21(3)
   + 17919.0390194343 C22(3) + 21489.72365698782 C23(3)
   + 64583.56346489702 C24(7) + 29891.20670733962 C25(3)
   + 22687.1683206008 C26(3) + 71737.51979568123 C27(7)
   + 21536.4773426638 C28(3) + 113664.7450682648 C29(10)
   + 32237.9701058786 C30(4) + 29863.13765527 C31(3)
   + 89691.76672351344 C32(10) + 31050.95019989954 C33(3)
   + 104053.6326606102 C34(10) + 45451.56937126 C35(5)
   + 76616.60077551435 C36(7) + 68192.09736184846 C37(7)
   + 76450.55215942237 C38(8) + 187810.9124832161 C39(17)
   + 187850.4626470243 C40(17) - 25.0518701298 C41(1)
   + 109976.2307144316 C42(9) + 126739.9846562154 C43(13)
   + 169843.5036192685 C44(16) + 64544.30241555192 C45(6)
   + 54994.4903379869 C46(5) + 26227.229887978 C47(3)
   + 23917.80275005088 C48(3) + 23873.1397395595 C49(3)
   + 50133.16121838082 C50(6) + 54968.3940810821 C51(5)
   + 48991.36377935584 C52(5) + 22722.71273136622 C53(3)
   + 32219.1095134796 C54(4) + 16739.56066720102 C55(2)
   + 13151.09952113994 C56(2) + 13145.9196842059 C57(2)
   + 32269.19703240717 C58(4) + 20303.7751950829 C59(3)
   + 13146.45416095233 C60(2) + 34700.9313532078 C61(3)
   + 27475.89600639397 C62(3) + 52646.27747142649 C63(5)
   + 22703.34987558666 C64(3) + 35879.7641107063 C65(4)
   + 23929.82453581501 C66(3) + 11948.20293915115 C67(2)
   + 105339.0797815647 C68(10) + 135208.5998542316 C69(13)
   + 82575.00091166853 C70(8) + 111254.6782392765 C71(11)
   + 75400.82463779754 C72(7) + 104109.3734922721 C73(11)
   + 50277.42227319197 C74(4) + 58663.27438673321 C75(6)
   + 63412.74900967848 C76(6) + 22721.01163813869 C77(3)
   + 75362.09129605527 C78(7) + 155517.5583158316 C79(13)
   - 2.24014753978 C80(1) + 59820.73710043409 C81(5)
   + 129109.6266254216 C82(14) + 136326.5274908993 C83(11)
   + 144654.9140361319 C84(15) + 65686.97873223037 C85(7)
   + 100340.5659202447 C86(13) + 94370.98090934959 C87(11)
   + 129132.68635541 C88(13) + 106409.0984406939 C89(10)
   + 103916.9625631261 C90(11) + 38232.66210224159 C91(4)
   + 123222.3377941557 C92(12) + 27564.45705302635 C93(3)
   + 87358.05339579025 C94(10) + 59771.63288213926 C95(7)
   + 134006.2503994188 C96(14) + 21520.38452024293 C97(3)
   + 27556.45385630058 C98(3) + 40704.53241369438 C99(4)
   + 122045.4715741563 C100(12) + 22733.97705766743 C101(3)
   + 28722.10397339539 C102(3) + 35914.63144901944 C103(4)
   + 116063.776351925 C104(11) + 111304.386631535 C105(10)
   + 53825.96812487925 C106(5) + 13148.5906049715 C107(2)
   + 66978.04369658919 C108(6) + 23899.174068382 C109(3)
   + 22705.52993658116 C110(3) + 17914.35193212567 C111(3)
   + 21531.83041651749 C112(3) + 92131.18021179338 C113(9)
   + 28680.3862680106 C114(3) + 105328.4817358864 C115(11)
   + 20322.43880474821 C116(3) + 41857.33672971047 C117(5)
   + 37097.94148695565 C118(4) + 64545.59034375991 C119(6)
   + 177081.442610542 C120(16) - 30.4930744432 C121(1)
   + 126761.7906059212 C122(13) + 118396.1332613541 C123(13)
   + 150709.1385338648 C124(13) + 38233.8476700945 C125(4)
   + 63298.55379264127 C126(8) + 82413.15714988805 C127(8)
   + 40623.27740576011 C128(4) + 36976.55789070513 C129(5)
   + 119600.5807408282 C130(10) + 53813.71734480302 C131(6)
   + 13134.5896965678 C132(2) + 80148.02918939598 C133(9)
   + 14289.7575507972 C134(2) + 44256.60125395936 C135(5)
   + 32229.11912332874 C136(4) + 71648.18988222459 C137(9)
   + 15487.304746453 C138(2) + 17950.54794006194 C139(2)
   + 34651.85079555069 C140(5) + 26287.5889663483 C141(3)
   + 94432.48708360434 C142(11) + 94419.42597042254 C143(11)
   + 11934.1056584555 C144(2) + 19129.34799449831 C145(3)
   + 21533.93484849216 C146(3) + 8315.975887333751 C147(2)
   + 28698.3202947416 C148(4) + 74169.50803156584 C149(7)
   + 7161.48349355057 C150(2) + 22678.53526900074 C151(3)
   + 13126.6840698098 C152(2) + 35891.32856281486 C153(4)
   + 27474.0142481113 C154(3) + 111276.0883123318 C155(12)
   + 56121.17296601259 C156(6) + 192540.8081732779 C157(16)
   + 193755.1530154811 C158(16) - 29.8612857225 C159(1)
   + 174617.9241580424 C160(16) + 181780.2675051809 C161(18)
   + 166235.9622946935 C162(16) + 135013.8552879607 C163(13)
   + 132606.3960337515 C164(15) + 119424.7090368583 C165(13)
   + 114660.9049643366 C166(13) + 87262.47651748561 C167(9)
   + 89611.28814303062 C168(8) + 117146.9980661267 C169(12)
   + 118212.2297061729 C170(11) + 105245.4769517018 C171(11)
   + 161473.3193276048 C172(17) + 102897.6137731351 C173(11)
   + 59693.4666423441 C174(7) + 84923.35345820001 C175(10)
   + 105253.9089867431 C176(12) + 54979.98936232809 C177(6)
   + 120747.8838764348 C178(13) + 114772.2974921381 C179(13)
   + 143601.7728168228 C180(14) + 87254.47934090599 C181(11)
   + 113626.4709847659 C182(13) + 178280.2653339478 C183(19)
   + 70556.52141271226 C184(7) + 100490.2954020469 C185(10)
   + 163897.2612519606 C186(17) + 145936.2746148036 C187(16)
   + 120829.9455180192 C188(12) + 22741.46091695353 C189(3)
   + 130382.5085611019 C190(13) + 159141.453733187 C191(17)
   + 50181.47159570192 C192(7) + 144740.4086601906 C193(15)
   + 142409.7113788654 C194(14) + 134021.0719151026 C195(13)
   + 80128.89823328434 C196(9) + 78968.28800481524 C197(9)
   + 93283.16476238893 C198(10) + 129182.8853863925 C199(14)
   + 130368.4468947697 C200(15) + 95695.85872631206 C201(12)
   + 48974.26658180662 C202(7) + 26222.8327478926 C203(4)
   + 174628.3681327044 C204(15) + 184206.0841691486 C205(15)
   - 31.602986014 C206(1) + 124402.5799687328 C207(11)
   + 174646.0528383713 C208(15) + 124224.5200587061 C209(12)
   + 141048.4290933046 C210(15) + 31036.0421043877 C211(3)
   + 80015.53016102004 C212(9) + 109943.2698472831 C213(12)
   + 120716.0715475533 C214(12) + 126710.638071087 C215(14)
   + 50164.19516567931 C216(6) + 46653.75080316262 C217(5)
   + 27486.3329013057 C218(3) + 89726.64417222692 C219(10)
   + 121974.1049045992 C220(13) + 142372.4824650884 C221(12)
   + 106393.2596727477 C222(11) + 86113.85496829392 C223(10)
   + 83731.42037066925 C224(8) + 38221.49951657814 C225(4)
   + 15496.4977615801 C226(2) + 58596.99908229739 C227(7)
   + 47781.77010879427 C228(6) + 41871.87455315553 C229(6)
   + 77758.24082250545 C230(8) + 62192.54566312481 C231(7)
   + 69361.20384027687 C232(7) + 88529.27971607856 C233(10)
   + 71767.03322881823 C234(8) + 116056.4295037958 C235(11)
   + 65813.13299856287 C236(7) + 40676.52274884811 C237(4)
   + 8355.24444290857 C238(2) + 89684.86190060301 C239(11)
   + 80157.80753513983 C240(9) + 90934.63909176835 C241(10)
   + 76556.85336684686 C242(9) + 88526.02972524356 C243(10)
   + 76546.25305775188 C244(9) + 95706.88431847638 C245(11)
   + 65702.96925066922 C246(6) + 202178.881215752 C247(17)
   + 206993.8299695716 C248(17) - 13.0279050119 C249(1)
   + 175799.0529450335 C250(16) + 169832.3848438499 C251(14)
   + 156591.7858137887 C252(16) + 156609.3706651047 C253(16)
   + 134986.4262779562 C254(15) + 118299.5347425656 C255(12)
   + 131492.9108326117 C256(14) + 40617.31794779861 C257(4)
   + 112413.7007116006 C258(11) + 40581.97727893153 C259(5)
   + 93351.46028441539 C260(9) + 74103.35892872703 C261(8)
   + 125630.9033272203 C262(13) + 32224.6115699934 C263(4)
   + 101723.1627989582 C264(9) + 25099.59760782895 C265(3)
   + 56178.35649711896 C266(6) + 46596.96803338072 C267(5)
   + 53815.81070643353 C268(5) + 59766.213523469 C269(7)
   + 21496.85817233097 C270(3) + 70593.90606360901 C271(7)
   + 67034.66265274592 C272(7) + 90925.44374146119 C273(9)
   + 92160.24865659958 C274(8) + 77750.50708736882 C275(7)
   + 39458.5365449396 C276(4) + 22711.74851184121 C277(3)
   + 57395.54764492411 C278(7) + 65786.93340694124 C279(7)
   + 62170.43616215627 C280(7) + 99285.10405366555 C281(10)
   + 49070.27874222957 C282(4) + 66959.82727125348 C283(7)
   + 83793.25634262871 C284(7) + 51429.44409758313 C285(5)
   + 52606.96217076535 C286(6) + 54986.70519650563 C287(6)
   + 66996.26761081218 C288(7) + 45506.54269436687 C289(5)
   + 28708.57106306315 C290(4) + 14379.9833680491 C291(2)
   + 53791.44060807077 C292(6) + 57407.29753620655 C293(7)
Subject To
 c0: 7 C5(13) + 7 C6(15) + 7 C20(6) + 7 C34(10) + 7 C44(16) + 7 C79(13)
   + 7 C83(11) + 7 C84(15) + 7 C85(7) + 7 C86(13) + 7 C91(4) + 7 C92(12)
   + 7 C94(10) + 7 C96(14) + 7 C100(12) + 7 C104(11) + 7 C108(6)
   + 7 C111(3) + 7 C115(11) + 7 C120(16) + 7 C122(13) + 7 C124(13)
   + 7 C130(10) + 7 C135(5) + 7 C137(9) + 7 C142(11) + 7 C143(11)
   + 7 C147(2) + 7 C149(7) + 7 C153(4) + 7 C155(12) + 7 C156(6)
   + 7 C157(16) + 7 C158(16) + 7 C160(16) + 7 C162(16) + 7 C163(13)
   + 7 C164(15) + 7 C165(13) + 7 C166(13) + 7 C172(17) + 7 C177(6)
   + 7 C181(11) + 7 C182(13) + 7 C183(19) + 7 C190(13) + 7 C191(17)
   + 7 C193(15) + 7 C195(13) + 7 C200(15) + 7 C204(15) + 7 C205(15)
   + 7 C208(15) + 7 C209(12) + 7 C210(15) + 7 C212(9) + 7 C225(4)
   + 7 C230(8) + 7 C231(7) + 7 C238(2) + 7 C247(17) + 7 C248(17)
   + 7 C250(16) + 7 C251(14) + 7 C252(16) + 7 C253(16) + 7 C254(15)
   + 7 C255(12) + 7 C261(8) + 7 C266(6) + 7 C269(7) + 7 C281(10)
   + 7 C283(7) + 7 C286(6) + 7 C287(6) <= 7
 c1: 9 C9(13) + 9 C10(12) + 9 C23(3) + 9 C48(3) + 9 C58(4) + 9 C62(3)
   + 9 C68(10) + 9 C88(13) + 9 C128(4) + 9 C136(4) + 9 C148(4) + 9 C151(3)
   + 9 C162(16) + 9 C165(13) + 9 C168(8) + 9 C170(11) + 9 C173(11)
   + 9 C178(13) + 9 C180(14) + 9 C182(13) + 9 C187(16) + 9 C188(12)
   + 9 C195(13) + 9 C199(14) + 9 C201(12) + 9 C214(12) + 9 C246(6)
   + 9 C247(17) + 9 C250(16) + 9 C251(14) + 9 C255(12) + 9 C257(4)
   + 9 C260(9) + 9 C270(3) + 9 C277(3) + 9 C290(4) <= 9
 c2: 15 C2(15) + 15 C4(4) + 15 C9(13) + 15 C39(17) + 15 C40(17)
   + 15 C43(13) + 15 C44(16) + 15 C68(10) + 15 C69(13) + 15 C71(11)
   + 15 C72(7) + 15 C73(11) + 15 C75(6) + 15 C78(7) + 15 C79(13)
   + 15 C82(14) + 15 C83(11) + 15 C88(13) + 15 C96(14) + 15 C99(4)
   + 15 C104(11) + 15 C105(10) + 15 C108(6) + 15 C113(9) + 15 C120(16)
   + 15 C123(13) + 15 C124(13) + 15 C130(10) + 15 C133(9) + 15 C135(5)
   + 15 C155(12) + 15 C157(16) + 15 C158(16) + 15 C161(18) + 15 C162(16)
   + 15 C168(8) + 15 C173(11) + 15 C175(10) + 15 C176(12) + 15 C180(14)
   + 15 C183(19) + 15 C185(10) + 15 C190(13) + 15 C191(17) + 15 C194(14)
   + 15 C195(13) + 15 C197(9) + 15 C198(10) + 15 C204(15) + 15 C205(15)
   + 15 C207(11) + 15 C208(15) + 15 C214(12) + 15 C221(12) + 15 C247(17)
   + 15 C248(17) + 15 C251(14) + 15 C262(13) + 15 C264(9) + 15 C271(7)
   + 15 C274(8) + 15 C284(7) <= 15
 c3: 5 C1(15) + 5 C2(15) + 5 C6(15) + 5 C10(12) + 5 C13(7) + 5 C24(7)
   + 5 C29(10) + 5 C32(10) + 5 C34(10) + 5 C35(5) + 5 C36(7) + 5 C39(17)
   + 5 C40(17) + 5 C44(16) + 5 C68(10) + 5 C69(13) + 5 C73(11) + 5 C86(13)
   + 5 C90(11) + 5 C160(16) + 5 C162(16) + 5 C165(13) + 5 C169(12)
   + 5 C172(17) + 5 C179(13) + 5 C180(14) + 5 C181(11) + 5 C182(13)
   + 5 C183(19) + 5 C187(16) + 5 C188(12) + 5 C193(15) + 5 C194(14)
   + 5 C195(13) + 5 C203(4) + 5 C204(15) + 5 C208(15) + 5 C213(12)
   + 5 C215(14) + 5 C216(6) + 5 C220(13) + 5 C235(11) + 5 C241(10)
   + 5 C242(9) + 5 C244(9) + 5 C247(17) + 5 C248(17) + 5 C250(16)
   + 5 C251(14) + 5 C255(12) + 5 C256(14) + 5 C258(11) + 5 C260(9)
   + 5 C261(8) + 5 C262(13) + 5 C269(7) + 5 C271(7) + 5 C272(7) + 5 C275(7)
   + 5 C278(7) + 5 C283(7) + 5 C286(6) + 5 C287(6) + 5 C288(7) + 5 C289(5)
   + 5 C290(4) <= 5
 c4: 12 C1(15) + 12 C2(15) + 12 C6(15) + 12 C12(12) + 12 C15(4) + 12 C25(3)
   + 12 C39(17) + 12 C40(17) + 12 C42(9) + 12 C44(16) + 12 C63(5)
   + 12 C70(8) + 12 C81(5) + 12 C93(3) + 12 C98(3) + 12 C101(3)
   + 12 C102(3) + 12 C118(4) + 12 C120(16) + 12 C122(13) + 12 C124(13)
   + 12 C130(10) + 12 C160(16) + 12 C165(13) + 12 C171(11) + 12 C173(11)
   + 12 C184(7) + 12 C204(15) + 12 C205(15) + 12 C208(15) + 12 C210(15)
   + 12 C219(10) + 12 C236(7) + 12 C241(10) + 12 C246(6) + 12 C247(17)
   + 12 C248(17) + 12 C250(16) + 12 C251(14) + 12 C254(15) + 12 C260(9)
   + 12 C262(13) + 12 C272(7) + 12 C289(5) + 12 C291(2) <= 12
 c5: 5 C0(5) + 5 C1(15) + 5 C2(15) + 5 C6(15) + 5 C8(12) + 5 C10(12)
   + 5 C16(7) + 5 C22(3) + 5 C28(3) + 5 C29(10) + 5 C44(16) + 5 C64(3)
   + 5 C70(8) + 5 C84(15) + 5 C86(13) + 5 C87(11) + 5 C90(11) + 5 C94(10)
   + 5 C110(3) + 5 C117(5) + 5 C118(4) + 5 C165(13) + 5 C166(13)
   + 5 C169(12) + 5 C173(11) + 5 C175(10) + 5 C200(15) + 5 C208(15)
   + 5 C209(12) + 5 C210(15) + 5 C213(12) + 5 C215(14) + 5 C216(6)
   + 5 C219(10) + 5 C221(12) + 5 C223(10) + 5 C241(10) + 5 C253(16)
   + 5 C254(15) + 5 C255(12) + 5 C258(11) + 5 C262(13) + 5 C264(9)
   + 5 C274(8) <= 5
 c6: 10 C6(15) + 9 C8(12) + 4 C10(12) + 2 C12(12) + 10 C13(7) + 10 C17(4)
   + 5 C27(7) + 10 C36(7) + 5 C37(7) + 10 C40(17) + 10 C44(16) + 10 C47(3)
   + 10 C69(13) + 5 C71(11) + 10 C73(11) + 10 C82(14) + 10 C84(15)
   + 4 C86(13) + 5 C96(14) + 10 C127(8) + 10 C160(16) + 10 C162(16)
   + 10 C165(13) + 6 C166(13) + 5 C171(11) + 6 C175(10) + 10 C176(12)
   + 10 C177(6) + 10 C180(14) + 10 C182(13) + 5 C186(17) + 10 C188(12)
   + 10 C194(14) + 10 C195(13) + 5 C201(12) + 10 C208(15) + 10 C210(15)
   + 9 C213(12) + C215(14) + 10 C222(11) + 10 C223(10) + 10 C235(11)
   + 10 C241(10) + 10 C242(9) + 10 C246(6) + 10 C247(17) + 10 C248(17)
   + 10 C250(16) + 10 C251(14) + 10 C252(16) + 10 C253(16) + 10 C254(15)
   + 10 C255(12) + 10 C256(14) + 10 C260(9) + 10 C265(3) + 10 C266(6)
   + 10 C272(7) + 10 C275(7) + 10 C277(3) + 10 C278(7) + 5 C280(7)
   + 9 C281(10) + 10 C283(7) + 10 C286(6) + 10 C287(6) + 10 C288(7)
   + 10 C289(5) + 10 C290(4) + 5 C292(6) <= 10
 c7: 8 C5(13) + 8 C7(4) + 8 C10(12) + 8 C12(12) + 8 C30(4) + 8 C34(10)
   + 8 C42(9) + 8 C44(16) + 8 C78(7) + 8 C79(13) + 8 C83(11) + 8 C86(13)
   + 8 C89(10) + 8 C94(10) + 8 C99(4) + 8 C105(10) + 8 C106(5) + 8 C111(3)
   + 8 C112(3) + 8 C113(9) + 8 C115(11) + 8 C122(13) + 8 C124(13)
   + 8 C133(9) + 8 C149(7) + 8 C153(4) + 8 C160(16) + 8 C162(16)
   + 8 C163(13) + 8 C166(13) + 8 C167(9) + 8 C169(12) + 8 C171(11)
   + 8 C172(17) + 8 C175(10) + 2 C176(12) + 8 C180(14) + 2 C182(13)
   + 2 C183(19) + 8 C184(7) + 8 C187(16) + 8 C188(12) + 8 C191(17)
   + 8 C192(7) + 8 C193(15) + 8 C194(14) + 8 C195(13) + 8 C197(9)
   + 8 C200(15) + 8 C208(15) + 8 C209(12) + 8 C215(14) + 8 C223(10)
   + 8 C232(7) + 8 C236(7) + 2 C245(11) + 8 C252(16) + 8 C255(12)
   + 8 C258(11) + 8 C264(9) + 8 C269(7) + 8 C279(7) + 8 C280(7) + 8 C284(7)
   + 8 C285(5) + 8 C286(6) + 2 C293(7) <= 8
 c8: 11 C12(12) + 11 C17(4) + 11 C21(3) + 11 C31(3) + 11 C39(17)
   + 11 C42(9) + 11 C43(13) + 11 C44(16) + 11 C51(5) + 11 C54(4)
   + 11 C56(2) + 11 C59(3) + 11 C65(4) + 11 C69(13) + 11 C70(8)
   + 11 C71(11) + 11 C83(11) + 11 C84(15) + 11 C90(11) + 11 C105(10)
   + 11 C124(13) + 11 C162(16) + 11 C163(13) + 11 C170(11) + 11 C174(7)
   + 11 C176(12) + 11 C179(13) + 11 C203(4) + 11 C204(15) + 11 C207(11)
   + 11 C208(15) + 11 C209(12) + 11 C210(15) + 11 C216(6) + 11 C225(4)
   + 11 C241(10) + 11 C251(14) + 11 C252(16) + 11 C253(16) + 11 C263(4)
   + 11 C265(3) + 11 C268(5) + 11 C280(7) + 11 C292(6) <= 11
 c9: 12 C1(15) + 12 C2(15) + 12 C6(15) + 12 C16(7) + 12 C29(10) + 12 C42(9)
   + 12 C43(13) + 12 C46(5) + 12 C63(5) + 12 C70(8) + 12 C79(13)
   + 12 C83(11) + 12 C85(7) + 12 C97(3) + 12 C102(3) + 12 C125(4)
   + 12 C141(3) + 12 C156(6) + 12 C157(16) + 12 C158(16) + 12 C160(16)
   + 12 C161(18) + 12 C162(16) + 12 C165(13) + 12 C204(15) + 12 C205(15)
   + 12 C208(15) + 12 C211(3) + 12 C218(3) + 12 C220(13) + 12 C221(12)
   + 12 C223(10) + 12 C227(7) + 12 C228(6) + 12 C232(7) + 12 C233(10)
   + 12 C235(11) + 12 C236(7) + 12 C240(9) + 12 C243(10) + 12 C245(11)
   + 12 C247(17) + 12 C248(17) + 12 C250(16) + 12 C251(14) + 12 C254(15)
   + 12 C255(12) + 12 C272(7) + 12 C275(7) <= 12
 c10: 8 C1(15) + 8 C2(15) + 8 C5(13) + 8 C8(12) + 8 C11(6) + 8 C13(7)
   + 8 C39(17) + 8 C40(17) + 8 C43(13) + 8 C50(6) + 8 C58(4) + 8 C79(13)
   + 8 C82(14) + 8 C87(11) + 8 C90(11) + 8 C92(12) + 8 C94(10) + 8 C96(14)
   + 8 C100(12) + 8 C115(11) + 8 C120(16) + 8 C123(13) + 8 C127(8)
   + 8 C146(3) + 8 C155(12) + 8 C156(6) + 8 C157(16) + 8 C158(16)
   + 8 C161(18) + 8 C163(13) + 8 C167(9) + 8 C170(11) + 8 C172(17)
   + 8 C177(6) + 8 C178(13) + 8 C181(11) + 8 C183(19) + 8 C186(17)
   + 8 C187(16) + 8 C189(3) + 8 C191(17) + 8 C199(14) + 8 C201(12)
   + 8 C204(15) + 8 C205(15) + 8 C207(11) + 8 C209(12) + 8 C213(12)
   + 8 C219(10) + 8 C229(6) + 8 C234(8) + 8 C239(11) + 8 C242(9)
   + 8 C244(9) + 8 C247(17) + 8 C248(17) + 8 C252(16) + 8 C256(14) <= 8
 c11: C5(13) + 14 C6(15) + 14 C11(6) + 14 C16(7) + 14 C31(3) + 14 C34(10)
   + 14 C38(8) + 14 C39(17) + 14 C42(9) + 14 C46(5) + 14 C51(5) + 14 C61(3)
   + 14 C62(3) + 14 C63(5) + 14 C64(3) + 14 C69(13) + 14 C70(8) + 14 C74(4)
   + 14 C81(5) + 14 C85(7) + 14 C89(10) + 14 C90(11) + 14 C91(4)
   + 14 C106(5) + 14 C110(3) + 14 C117(5) + 14 C118(4) + 14 C137(9)
   + 14 C157(16) + 14 C169(12) + 14 C170(11) + 14 C178(13) + 14 C204(15)
   + 14 C209(12) + 14 C211(3) + 14 C215(14) + 14 C225(4) + 14 C235(11)
   + 14 C258(11) + 14 C262(13) <= 14
 c12: 15 C1(15) + 15 C2(15) + 15 C4(4) + 15 C10(12) + 15 C29(10)
   + 15 C34(10) + 15 C36(7) + 15 C39(17) + 15 C40(17) + 15 C44(16)
   + 15 C61(3) + 15 C68(10) + 15 C74(4) + 15 C79(13) + 15 C83(11)
   + 9 C84(15) + 15 C89(10) + 15 C92(12) + 15 C100(12) + 15 C115(11)
   + 15 C119(6) + 15 C120(16) + 15 C124(13) + 15 C131(6) + 15 C139(2)
   + 15 C149(7) + 15 C153(4) + 15 C157(16) + 15 C158(16) + 15 C162(16)
   + 15 C169(12) + 15 C172(17) + 9 C175(10) + 9 C176(12) + 9 C179(13)
   + 15 C180(14) + 9 C182(13) + 9 C183(19) + 9 C186(17) + 15 C187(16)
   + 15 C188(12) + 9 C191(17) + 9 C193(15) + 15 C194(14) + 15 C195(13)
   + 9 C196(9) + 9 C197(9) + 9 C198(10) + 9 C200(15) + 9 C201(12)
   + 15 C204(15) + 15 C205(15) + 15 C208(15) + 9 C210(15) + 15 C215(14)
   + 9 C220(13) + 15 C221(12) + 15 C224(8) + 15 C230(8) + 15 C231(7)
   + 9 C233(10) + 15 C235(11) + 15 C237(4) + 9 C241(10) + 9 C243(10)
   + 9 C245(11) + 15 C247(17) + 15 C248(17) + 15 C251(14) + 9 C253(16)
   + 15 C258(11) + 15 C264(9) + 15 C273(9) + 15 C274(8) + 15 C279(7)
   + 15 C282(4) + 15 C284(7) + 15 C285(5) + 9 C293(7) <= 15
 c13: 8 C5(13) + 8 C9(13) + 8 C14(3) + 8 C38(8) + 8 C39(17) + 8 C40(17)
   + 8 C44(16) + 8 C45(6) + 8 C53(3) + 8 C65(4) + 8 C68(10) + 8 C69(13)
   + 8 C71(11) + 8 C72(7) + 8 C73(11) + 8 C75(6) + 8 C77(3) + 8 C82(14)
   + 8 C84(15) + 8 C86(13) + 8 C95(7) + 8 C105(10) + 8 C113(9) + 8 C123(13)
   + 8 C126(8) + 8 C133(9) + 8 C136(4) + 8 C140(5) + 8 C164(15)
   + 8 C166(13) + 8 C173(11) + 8 C175(10) + 8 C176(12) + 8 C178(13)
   + 8 C179(13) + 8 C185(10) + 8 C192(7) + 8 C194(14) + 8 C196(9)
   + 8 C197(9) + 8 C198(10) + 8 C202(7) + 8 C207(11) + 8 C209(12)
   + 8 C210(15) + 8 C212(9) + 8 C214(12) + 8 C219(10) + 8 C222(11)
   + 8 C224(8) + 8 C252(16) + 8 C253(16) + 8 C262(13) + 8 C264(9)
   + 8 C274(8) + 8 C284(7) + 8 C288(7) + 8 C292(6) <= 8
 c14: 11 C5(13) + 11 C10(12) + 11 C29(10) + 11 C36(7) + 11 C37(7)
   + 11 C44(16) + 11 C49(3) + 11 C53(3) + 11 C60(2) + 11 C68(10)
   + 11 C69(13) + 11 C71(11) + 11 C72(7) + 11 C73(11) + 11 C75(6)
   + 5 C82(14) + 11 C83(11) + 11 C84(15) + 11 C89(10) + 11 C124(13)
   + 11 C132(2) + 11 C149(7) + 11 C156(6) + 11 C157(16) + 11 C158(16)
   + 11 C160(16) + 11 C161(18) + 11 C162(16) + 11 C163(13) + 11 C164(15)
   + 11 C169(12) + 11 C173(11) + 10 C176(12) + 11 C179(13) + 11 C180(14)
   + 5 C181(11) + 11 C182(13) + 11 C183(19) + 11 C186(17) + 5 C187(16)
   + 11 C188(12) + 11 C189(3) + 11 C190(13) + 11 C193(15) + 11 C194(14)
   + 11 C195(13) + 11 C196(9) + 11 C207(11) + 11 C208(15) + 11 C209(12)
   + 11 C210(15) + 11 C215(14) + 11 C220(13) + 11 C222(11) + 2 C229(6)
   + 6 C233(10) + 11 C234(8) + 11 C235(11) + 11 C239(11) + 11 C247(17)
   + 11 C248(17) + 11 C250(16) + 11 C251(14) + 11 C252(16) + 11 C253(16)
   + 11 C258(11) + 9 C262(13) + 11 C271(7) + 11 C278(7) + 11 C280(7) <= 11
 c15: 11 C1(15) + 11 C2(15) + 11 C10(12) + 11 C12(12) + 11 C16(7)
   + 11 C34(10) + 11 C40(17) + 11 C43(13) + 11 C78(7) + 11 C79(13)
   + 11 C82(14) + 11 C84(15) + 11 C86(13) + 11 C89(10) + 11 C91(4)
   + 4 C92(12) + 11 C93(3) + 4 C94(10) + 4 C95(7) + 4 C96(14) + 4 C100(12)
   + 4 C104(11) + 11 C105(10) + 4 C115(11) + 11 C120(16) + 4 C122(13)
   + 4 C123(13) + 4 C126(8) + 11 C129(5) + 11 C130(10) + 4 C131(6)
   + 4 C133(9) + C137(9) + 4 C140(5) + 4 C142(11) + 4 C143(11) + 4 C148(4)
   + 4 C155(12) + 11 C157(16) + 11 C158(16) + 11 C160(16) + 11 C161(18)
   + 11 C164(15) + 11 C166(13) + 11 C169(12) + 11 C171(11) + 5 C172(17)
   + 4 C180(14) + 4 C182(13) + 5 C183(19) + 5 C186(17) + 5 C187(16)
   + 10 C188(12) + 11 C190(13) + 5 C191(17) + 5 C193(15) + 10 C194(14)
   + 5 C199(14) + 5 C200(15) + 5 C201(12) + 11 C205(15) + 11 C207(11)
   + 11 C210(15) + 11 C212(9) + 11 C215(14) + 11 C217(5) + 11 C220(13)
   + 11 C221(12) + 11 C241(10) + 11 C247(17) + 11 C248(17) + 11 C250(16)
   + 11 C253(16) + 11 C255(12) + 11 C258(11) + 11 C260(9) + 11 C264(9)
   + 11 C268(5) + 11 C272(7) + 11 C274(8) + 11 C281(10) + 11 C284(7)
   + 11 C288(7) + 11 C289(5) + 11 C293(7) <= 11
 c16: 5 C8(12) + 5 C10(12) + 4 C82(14) + 4 C86(13) + 5 C87(11) + 5 C89(10)
   + 5 C119(6) + 5 C120(16) + 5 C122(13) + 5 C123(13) + 5 C126(8)
   + 5 C127(8) + 5 C129(5) + 5 C131(6) + 5 C142(11) + 5 C143(11)
   + 5 C155(12) + 5 C161(18) + 5 C162(16) + 5 C164(15) + 5 C165(13)
   + 5 C169(12) + 5 C171(11) + 5 C172(17) + 5 C174(7) + 5 C175(10)
   + 5 C176(12) + 5 C178(13) + 5 C179(13) + 5 C183(19) + 5 C184(7)
   + 5 C185(10) + 5 C186(17) + 5 C187(16) + 5 C188(12) + 5 C190(13)
   + 5 C191(17) + 5 C192(7) + 5 C193(15) + 5 C194(14) + 5 C196(9)
   + 5 C197(9) + 5 C198(10) + 5 C199(14) + 5 C200(15) + 5 C201(12)
   + 5 C202(7) + 5 C212(9) + 5 C213(12) + 5 C215(14) + 5 C217(5)
   + 5 C220(13) + 5 C222(11) + 5 C235(11) + 5 C254(15) + 5 C256(14) <= 5
 c17: 11 C4(4) + 11 C18(2) + 11 C27(7) + 11 C32(10) + 11 C38(8) + 5 C39(17)
   + 5 C40(17) + 11 C43(13) + 11 C44(16) + 5 C50(6) + 11 C57(2) + 11 C65(4)
   + 11 C68(10) + 5 C69(13) + 5 C72(7) + 11 C73(11) + 5 C75(6) + 11 C76(6)
   + 11 C77(3) + 11 C81(5) + 11 C82(14) + 11 C83(11) + 11 C86(13)
   + 3 C87(11) + 11 C90(11) + 11 C96(14) + 11 C100(12) + 5 C104(11)
   + 11 C107(2) + 11 C108(6) + 11 C109(3) + 11 C113(9) + 11 C114(3)
   + 11 C120(16) + 11 C122(13) + 11 C123(13) + 11 C124(13) + 11 C126(8)
   + 5 C133(9) + 11 C135(5) + 5 C137(9) + 11 C142(11) + 5 C143(11)
   + 11 C149(7) + 11 C152(2) + 5 C155(12) + 11 C157(16) + 11 C158(16)
   + 11 C160(16) + 5 C161(18) + 11 C162(16) + 11 C166(13) + 11 C170(11)
   + 11 C174(7) + 11 C177(6) + 5 C179(13) + 5 C180(14) + 5 C185(10)
   + 11 C186(17) + 11 C188(12) + 5 C191(17) + 11 C193(15) + 5 C194(14)
   + 11 C195(13) + 11 C196(9) + 5 C198(10) + 5 C200(15) + 11 C204(15)
   + 11 C205(15) + 11 C207(11) + 11 C208(15) + 5 C212(9) + 11 C216(6)
   + 11 C219(10) + 11 C220(13) + 5 C221(12) + 5 C224(8) + 5 C230(8)
   + 11 C231(7) + 11 C250(16) + 11 C251(14) + 11 C255(12) + 5 C259(5)
   + 11 C266(6) + 11 C275(7) + 11 C276(4) + 5 C281(10) + 11 C288(7)
   + 11 C292(6) <= 11
 c18: 7 C8(12) + 7 C9(13) + 7 C32(10) + 7 C34(10) + 7 C38(8) + 7 C39(17)
   + 7 C40(17) + 7 C43(13) + 7 C71(11) + 7 C73(11) + 7 C79(13) + 7 C82(14)
   + 7 C84(15) + 7 C87(11) + 7 C88(13) + 7 C101(3) + 7 C105(10) + 7 C116(3)
   + 7 C122(13) + 7 C123(13) + 7 C127(8) + 7 C137(9) + 7 C142(11)
   + 7 C143(11) + 7 C160(16) + 7 C164(15) + 7 C165(13) + 7 C167(9)
   + 7 C168(8) + 7 C172(17) + 7 C174(7) + 7 C176(12) + 7 C179(13)
   + 7 C180(14) + 7 C182(13) + 7 C183(19) + 7 C186(17) + 7 C187(16)
   + 7 C188(12) + 7 C194(14) + 7 C195(13) + 7 C196(9) + 7 C198(10)
   + 7 C201(12) + 7 C202(7) + 7 C210(15) + 7 C213(12) + 7 C214(12)
   + 5 C219(10) + 7 C220(13) + 7 C223(10) + 7 C228(6) + 7 C233(10)
   + 7 C236(7) + 7 C239(11) + 7 C241(10) + 7 C242(9) + 7 C243(10)
   + 7 C244(9) + 7 C245(11) + 7 C247(17) + 7 C250(16) + 7 C253(16)
   + 7 C254(15) + 7 C256(14) + 7 C273(9) + 7 C279(7) + 7 C280(7)
   + 7 C285(5) + 7 C293(7) <= 7
 c19: 5 C6(15) + 10 C7(4) + 10 C9(13) + 10 C15(4) + 10 C24(7) + 10 C27(7)
   + 10 C29(10) + 10 C32(10) + 10 C34(10) + 10 C35(5) + 10 C37(7)
   + 10 C38(8) + 10 C39(17) + 10 C52(5) + 10 C54(4) + 10 C58(4)
   + 10 C71(11) + 10 C88(13) + 10 C96(14) + 10 C126(8) + 10 C151(3)
   + 9 C166(13) + 10 C168(8) + 10 C171(11) + 10 C172(17) + 4 C173(11)
   + 10 C174(7) + 5 C176(12) + 10 C178(13) + 10 C183(19) + 10 C186(17)
   + 10 C187(16) + 10 C190(13) + 10 C193(15) + 10 C199(14) + 10 C201(12)
   + 10 C220(13) + 10 C234(8) + 10 C239(11) + 10 C244(9) + 5 C252(16)
   + 5 C253(16) + 5 C254(15) + 10 C261(8) + 10 C263(4) + 10 C271(7)
   + 10 C280(7) + 10 C292(6) <= 10
 c20: 13 C1(15) + 13 C2(15) + 13 C5(13) + 13 C11(6) + 13 C12(12)
   + 13 C14(3) + 13 C25(3) + 13 C30(4) + 13 C45(6) + 13 C50(6) + 13 C51(5)
   + 5 C88(13) + 13 C92(12) + 13 C100(12) + 13 C104(11) + 13 C114(3)
   + 13 C119(6) + 13 C120(16) + 13 C130(10) + 13 C138(2) + 13 C154(3)
   + 13 C157(16) + 13 C158(16) + 13 C163(13) + 13 C170(11) + 5 C178(13)
   + 10 C181(11) + 13 C184(7) + 13 C185(10) + 13 C198(10) + 5 C199(14)
   + 13 C204(15) + 13 C205(15) + 13 C209(12) + 13 C226(2) + 13 C229(6)
   + 13 C237(4) + 13 C245(11) + 13 C259(5) + 6 C262(13) + 13 C268(5)
   + 13 C274(8) + 13 C282(4) + 13 C284(7) + 13 C285(5) + 13 C293(7) <= 13
 c21: 10 C6(15) + 10 C9(13) + 10 C10(12) + 10 C20(6) + 10 C24(7)
   + 10 C27(7) + 10 C32(10) + 4 C44(16) + 10 C46(5) + 10 C76(6) + 10 C78(7)
   + 10 C79(13) + 10 C83(11) + 10 C85(7) + 10 C88(13) + 10 C89(10)
   + 10 C105(10) + 10 C106(5) + 10 C112(3) + 10 C113(9) + 10 C116(3)
   + 10 C123(13) + 10 C124(13) + 10 C125(4) + 10 C137(9) + 10 C142(11)
   + 10 C149(7) + 10 C161(18) + 10 C162(16) + 10 C165(13) + 10 C166(13)
   + 9 C169(12) + 10 C172(17) + 10 C177(6) + 10 C179(13) + 10 C180(14)
   + 10 C183(19) + 10 C186(17) + 10 C188(12) + 10 C191(17) + 10 C193(15)
   + 10 C194(14) + 10 C195(13) + 10 C196(9) + 10 C200(15) + 10 C207(11)
   + 10 C208(15) + 10 C212(9) + 10 C214(12) + 10 C215(14) + 10 C216(6)
   + 10 C217(5) + 10 C219(10) + 10 C223(10) + 10 C227(7) + 10 C232(7)
   + 10 C233(10) + 10 C236(7) + 10 C240(9) + 10 C243(10) + 10 C245(11)
   + 10 C247(17) + 10 C248(17) + 10 C251(14) + 10 C254(15) + 10 C256(14)
   + 10 C258(11) + 10 C267(5) + 10 C279(7) + 10 C281(10) + 10 C283(7)
   <= 10
 c22: 9 C9(13) + 10 C39(17) + 10 C40(17) + 10 C50(6) + 4 C68(10)
   + 10 C69(13) + 10 C71(11) + 10 C72(7) + 4 C73(11) + 10 C75(6)
   + 10 C79(13) + 9 C88(13) + 10 C90(11) + 10 C92(12) + 4 C96(14)
   + 4 C100(12) + 10 C104(11) + 10 C105(10) + 4 C120(16) + 4 C122(13)
   + 4 C123(13) + 4 C126(8) + 10 C130(10) + 10 C131(6) + 10 C133(9)
   + 4 C135(5) + 10 C136(4) + 10 C137(9) + 4 C142(11) + 10 C143(11)
   + 10 C155(12) + 4 C157(16) + 4 C158(16) + 4 C160(16) + 10 C161(18)
   + 3 C164(15) + 4 C166(13) + 10 C170(11) + 10 C172(17) + 10 C173(11)
   + 10 C179(13) + 10 C180(14) + 10 C181(11) + 10 C183(19) + 10 C185(10)
   + 10 C190(13) + 10 C191(17) + 10 C194(14) + 4 C195(13) + 10 C198(10)
   + 10 C200(15) + 4 C204(15) + 4 C205(15) + 3 C210(15) + 9 C214(12)
   + 10 C221(12) + 10 C224(8) + 10 C230(8) + 4 C231(7) + 10 C246(6)
   + 10 C247(17) + 10 C248(17) + 4 C250(16) + 10 C255(12) + 10 C259(5)
   + 10 C261(8) + 10 C262(13) + 10 C271(7) + 10 C274(8) + 10 C281(10)
   + 10 C283(7) + 10 C287(6) <= 10
 c23: 12 C1(15) + 12 C2(15) + 14 C5(13) + 14 C8(12) + 4 C9(13) + 14 C13(7)
   + 14 C20(6) + 14 C27(7) + 14 C29(10) + 14 C33(3) + 14 C40(17)
   + 14 C44(16) + 14 C45(6) + 14 C52(5) + 14 C55(2) + 14 C66(3) + 14 C72(7)
   + 14 C76(6) + 14 C79(13) + 14 C83(11) + 14 C87(11) + 14 C88(13)
   + 14 C92(12) + 14 C94(10) + 14 C96(14) + 14 C100(12) + 14 C104(11)
   + 14 C108(6) + 14 C115(11) + 14 C120(16) + 14 C122(13) + 14 C124(13)
   + 14 C127(8) + 14 C128(4) + 14 C130(10) + 14 C142(11) + 14 C143(11)
   + 14 C155(12) + 14 C158(16) + 14 C160(16) + 4 C162(16) + 14 C163(13)
   + 14 C168(8) + 14 C172(17) + 14 C182(13) + 14 C186(17) + 14 C187(16)
   + 14 C191(17) + 14 C193(15) + 14 C199(14) + 14 C200(15) + 14 C205(15)
   + 14 C208(15) + 14 C213(12) + 14 C214(12) + 14 C221(12) + 14 C222(11)
   + 14 C246(6) + 14 C247(17) + 14 C248(17) + 14 C250(16) + 14 C251(14)
   + 14 C252(16) + 14 C256(14) + 14 C257(4) + 14 C261(8) + 14 C264(9)
   + 14 C266(6) + 14 C267(5) + 14 C269(7) + 14 C275(7) + 14 C281(10)
   + 14 C283(7) + 14 C286(6) + 14 C287(6) <= 14
 c24: 10 C6(15) + 8 C8(12) + 10 C12(12) + 8 C32(10) + 10 C39(17)
   + 10 C40(17) + 10 C42(9) + 2 C43(13) + 10 C46(5) + 10 C67(2)
   + 10 C68(10) + 10 C69(13) + 8 C71(11) + 8 C73(11) + 10 C76(6)
   + 10 C87(11) + 10 C119(6) + 10 C120(16) + 10 C122(13) + 10 C123(13)
   + 10 C125(4) + 10 C130(10) + 10 C143(11) + 10 C144(2) + 10 C145(3)
   + 10 C146(3) + 10 C157(16) + 10 C158(16) + 10 C160(16) + 9 C161(18)
   + 10 C164(15) + 10 C165(13) + 10 C167(9) + 10 C171(11) + 10 C178(13)
   + 9 C181(11) + 10 C185(10) + 10 C186(17) + 10 C190(13) + 10 C199(14)
   + 8 C213(12) + 10 C219(10) + 10 C222(11) + 9 C227(7) + 10 C235(11)
   + 2 C239(11) + 9 C240(9) + 8 C242(9) + 8 C244(9) + 10 C248(17)
   + 10 C250(16) + 10 C254(15) + 10 C256(14) + 10 C260(9) + 10 C268(5)
   + 8 C273(9) + 10 C278(7) <= 10
 c25: 13 C2(15) + 13 C5(13) + 13 C8(12) + 13 C12(12) + 13 C16(7)
   + 13 C19(3) + 13 C24(7) + 13 C28(3) + 13 C29(10) + 13 C35(5) + 13 C36(7)
   + 13 C37(7) + 13 C39(17) + 13 C40(17) + 13 C42(9) + 13 C45(6) + 9 C70(8)
   + 13 C74(4) + 13 C78(7) + 13 C79(13) + 13 C81(5) + 13 C84(15)
   + 13 C103(4) + 13 C105(10) + 13 C106(5) + 13 C120(16) + 13 C122(13)
   + 13 C127(8) + 13 C157(16) + 13 C158(16) + 13 C160(16) + 13 C163(13)
   + 13 C167(9) + 13 C171(11) + 5 C181(11) + 13 C183(19) + 13 C204(15)
   + 13 C205(15) + 13 C209(12) + 13 C213(12) + 13 C217(5) + 9 C220(13)
   + 13 C221(12) + 9 C223(10) + 13 C224(8) + 13 C230(8) + 13 C232(7)
   + 9 C233(10) + 13 C235(11) + 9 C240(9) + 13 C243(10) + 9 C245(11)
   + 13 C247(17) + 13 C248(17) + 13 C250(16) + 13 C252(16) + 13 C253(16)
   + 13 C256(14) + 13 C260(9) + 13 C273(9) + 13 C275(7) + 13 C276(4)
   + 13 C282(4) <= 13
 c26: 6 C1(15) + 6 C2(15) + 6 C8(12) + 6 C12(12) + 5 C84(15) + 6 C86(13)
   + 6 C87(11) + 6 C92(12) + 6 C95(7) + 6 C96(14) + 6 C100(12) + 6 C103(4)
   + 6 C115(11) + 6 C117(5) + 6 C161(18) + 6 C164(15) + 6 C166(13)
   + 6 C167(9) + 6 C171(11) + 6 C172(17) + 6 C173(11) + 5 C190(13)
   + 6 C191(17) + 6 C192(7) + 6 C197(9) + 6 C200(15) + 6 C202(7)
   + 6 C203(4) + 6 C204(15) + 6 C213(12) + 5 C222(11) + 5 C223(10)
   + 6 C227(7) + 6 C229(6) + 6 C230(8) + 6 C231(7) + 5 C234(8) + 6 C237(4)
   + 5 C239(11) + 6 C240(9) + 6 C243(10) + 6 C245(11) + 6 C256(14)
   + 6 C262(13) + 5 C266(6) + 6 C269(7) + 6 C273(9) + 6 C281(10) <= 6
 c27: 7 C5(13) + 8 C6(15) + 8 C12(12) + 8 C32(10) + 8 C37(7) + 8 C38(8)
   + 8 C39(17) + 8 C40(17) + 8 C43(13) + 8 C51(5) + 8 C69(13) + 8 C71(11)
   + 8 C73(11) + 8 C76(6) + 8 C82(14) + 8 C90(11) + 8 C96(14) + 8 C104(11)
   + 8 C130(10) + 8 C155(12) + 8 C157(16) + 8 C158(16) + 8 C161(18)
   + 7 C163(13) + 8 C165(13) + 8 C170(11) + 8 C171(11) + 8 C178(13)
   + 8 C181(11) + 8 C185(10) + 8 C187(16) + 8 C190(13) + 8 C199(14)
   + 8 C207(11) + 8 C222(11) + 8 C234(8) + 8 C239(11) + 8 C242(9)
   + 8 C244(9) + 8 C252(16) + 8 C254(15) + 8 C260(9) + 8 C271(7)
   + 8 C273(9) <= 8
 c28: 9 C5(13) + 9 C8(12) + 9 C9(13) + 9 C11(6) + 9 C13(7) + 9 C16(7)
   + 9 C20(6) + 9 C23(3) + 9 C26(3) + 9 C49(3) + 9 C87(11) + 9 C89(10)
   + 9 C90(11) + 9 C92(12) + 9 C95(7) + 9 C108(6) + 9 C109(3) + 9 C113(9)
   + 9 C115(11) + 9 C129(5) + 9 C156(6) + 9 C157(16) + 9 C161(18)
   + 9 C163(13) + 9 C164(15) + 9 C167(9) + 9 C168(8) + 9 C169(12)
   + 9 C170(11) + 9 C175(10) + 9 C179(13) + 9 C191(17) + 9 C192(7)
   + 9 C197(9) + 9 C200(15) + 9 C202(7) + 9 C205(15) + 6 C214(12)
   + 9 C215(14) + 9 C221(12) + 9 C224(8) + 9 C228(6) + 9 C230(8)
   + 9 C231(7) + 9 C232(7) + 9 C233(10) + 9 C240(9) + 9 C243(10)
   + 9 C258(11) + 9 C264(9) + 9 C267(5) + 9 C270(3) + 9 C273(9) + 9 C276(4)
   + 9 C279(7) <= 9
 c29: 3 C1(15) + 3 C2(15) + 11 C9(13) + 11 C43(13) + 11 C48(3) + 11 C52(5)
   + 11 C82(14) + 11 C86(13) + 11 C88(13) + 11 C92(12) + 11 C94(10)
   + 11 C95(7) + 11 C96(14) + 11 C98(3) + 11 C99(4) + 11 C100(12)
   + 11 C103(4) + 11 C104(11) + 11 C115(11) + 11 C119(6) + 4 C120(16)
   + 11 C122(13) + 11 C123(13) + 11 C126(8) + 11 C128(4) + 11 C131(6)
   + 11 C133(9) + 11 C140(5) + 11 C142(11) + 11 C143(11) + 11 C148(4)
   + 11 C155(12) + 11 C160(16) + 11 C161(18) + 11 C166(13) + 11 C168(8)
   + 10 C172(17) + 11 C180(14) + 11 C182(13) + 10 C183(19) + 11 C184(7)
   + 10 C186(17) + 10 C187(16) + 11 C190(13) + 10 C191(17) + 10 C193(15)
   + 10 C199(14) + 10 C200(15) + 10 C201(12) + 11 C207(11) + 11 C212(9)
   + 11 C214(12) + 11 C218(3) + 11 C250(16) + 11 C255(12) + 11 C257(4)
   + 11 C281(10) + 11 C288(7) <= 11
 c30: 6 C6(15) + 6 C13(7) + 6 C38(8) + 6 C39(17) + 6 C40(17) + 6 C44(16)
   + 6 C45(6) + 6 C52(5) + 6 C66(3) + 6 C69(13) + 6 C82(14) + 6 C84(15)
   + 6 C85(7) + 6 C92(12) + 6 C94(10) + 6 C115(11) + 6 C120(16)
   + 6 C123(13) + 6 C124(13) + 6 C145(3) + 6 C150(2) + 6 C155(12)
   + 6 C161(18) + 6 C163(13) + 6 C164(15) + 6 C172(17) + 6 C173(11)
   + 6 C178(13) + 6 C183(19) + 6 C186(17) + C187(16) + 6 C190(13)
   + 6 C191(17) + 6 C199(14) + 6 C201(12) + 6 C210(15) + 6 C219(10)
   + 6 C222(11) + 6 C229(6) + 6 C234(8) + 6 C239(11) + 6 C242(9)
   + 6 C244(9) + 6 C252(16) + 6 C253(16) + 6 C254(15) + 6 C261(8)
   + 6 C262(13) + 6 C278(7) <= 6
 c31: 6 C9(13) + 6 C11(6) + 6 C20(6) + 6 C24(7) + 6 C30(4) + 6 C43(13)
   + 6 C50(6) + 6 C54(4) + 6 C59(3) + 6 C78(7) + 6 C84(15) + 6 C88(13)
   + 6 C90(11) + 6 C113(9) + 6 C124(13) + 6 C133(9) + 6 C137(9) + 6 C140(5)
   + 6 C142(11) + 6 C143(11) + 6 C161(18) + 6 C162(16) + 6 C164(15)
   + 6 C170(11) + 6 C174(7) + 6 C175(10) + 6 C176(12) + 6 C179(13)
   + 6 C181(11) + 6 C182(13) + 6 C183(19) + 6 C186(17) + 6 C191(17)
   + 6 C192(7) + 6 C193(15) + 6 C196(9) + 6 C197(9) + 6 C198(10)
   + 6 C200(15) + 6 C201(12) + 6 C202(7) + 6 C210(15) + 6 C214(12)
   + 6 C220(13) + 6 C227(7) + 6 C228(6) + 6 C232(7) + 6 C233(10)
   + 6 C239(11) + 6 C240(9) + 6 C241(10) + 6 C243(10) + 6 C245(11)
   + 6 C252(16) + 6 C253(16) + 6 C256(14) + 6 C259(5) + 6 C263(4)
   + 6 C267(5) + 6 C278(7) + 6 C293(7) <= 6
 c32: 10 C0(5) + 10 C1(15) + 10 C2(15) + 10 C6(15) + 10 C12(12) + 10 C15(4)
   + 10 C17(4) + 10 C22(3) + 10 C24(7) + 10 C26(3) + 10 C27(7) + 10 C29(10)
   + 10 C32(10) + 10 C34(10) + 10 C35(5) + 10 C36(7) + 10 C37(7)
   + 6 C88(13) + 10 C94(10) + 9 C96(14) + 9 C100(12) + 10 C104(11)
   + 10 C113(9) + 10 C117(5) + 10 C141(3) + 10 C154(3) + 10 C158(16)
   + 10 C161(18) + 10 C164(15) + 9 C172(17) + 6 C178(13) + 10 C183(19)
   + 10 C184(7) + 10 C185(10) + 10 C186(17) + 10 C193(15) + 6 C199(14)
   + 10 C205(15) + 6 C215(14) + 10 C221(12) + 10 C224(8) + 10 C248(17)
   + 10 C252(16) + 10 C253(16) + 10 C254(15) + 10 C256(14) + 10 C261(8)
   + 9 C262(13) + 10 C269(7) + 10 C273(9) <= 10
 c33: 12 C0(5) + 12 C1(15) + 12 C7(4) + 12 C8(12) + 12 C21(3) + 12 C33(3)
   + 12 C42(9) + 4 C43(13) + 12 C47(3) + 4 C82(14) + 12 C84(15) + 4 C86(13)
   + 12 C87(11) + 12 C95(7) + 12 C127(8) + 12 C134(2) + 12 C164(15)
   + 12 C167(9) + 12 C178(13) + 12 C187(16) + 12 C199(14) + 12 C210(15)
   + 10 C212(9) + 12 C213(12) + 12 C222(11) + 12 C234(8) + 12 C239(11)
   + 12 C242(9) + 12 C244(9) + 12 C253(16) <= 12
 c34: 6 C0(5) + 6 C1(15) + 6 C5(13) + 6 C6(15) + 6 C9(13) + 6 C10(12)
   + 6 C19(3) + 6 C32(10) + 6 C63(5) + 6 C70(8) + 6 C85(7) + 6 C88(13)
   + 6 C89(10) + 6 C97(3) + 6 C129(5) + 6 C163(13) + 6 C169(12)
   + 6 C209(12) + 6 C214(12) + 6 C215(14) + 6 C220(13) + 6 C223(10)
   + 6 C227(7) + 6 C228(6) + 6 C233(10) + 2 C235(11) + 6 C236(7)
   + 6 C240(9) + 2 C243(10) + 6 C245(11) + 6 C252(16) + 6 C254(15)
   + 6 C256(14) + 6 C258(11) + 6 C272(7) + 6 C279(7) <= 6
 c35: C0(5) + C1(15) + C2(15) + C3(1) + C4(4) + C5(13) + C6(15) + C7(4)
   + C8(12) + C9(13) + C10(12) + C11(6) + C12(12) + C13(7) + C14(3)
   + C15(4) + C16(7) + C17(4) + C18(2) + C19(3) + C20(6) + C21(3) + C22(3)
   + C23(3) + C24(7) + C25(3) + C26(3) + C27(7) + C28(3) + C29(10) + C30(4)
   + C31(3) + C32(10) + C33(3) + C34(10) + C35(5) + C36(7) + C37(7) = 1
 c36: C38(8) + C39(17) + C40(17) + C41(1) + C42(9) + C43(13) + C44(16)
   + C45(6) + C46(5) + C47(3) + C48(3) + C49(3) + C50(6) + C51(5) + C52(5)
   + C53(3) + C54(4) + C55(2) + C56(2) + C57(2) + C58(4) + C59(3) + C60(2)
   + C61(3) + C62(3) + C63(5) + C64(3) + C65(4) + C66(3) + C67(2) + C68(10)
   + C69(13) + C70(8) + C71(11) + C72(7) + C73(11) + C74(4) + C75(6)
   + C76(6) + C77(3) = 1
 c37: C78(7) + C79(13) + C80(1) + C81(5) + C82(14) + C83(11) + C84(15)
   + C85(7) + C86(13) + C87(11) + C88(13) + C89(10) + C90(11) + C91(4)
   + C92(12) + C93(3) + C94(10) + C95(7) + C96(14) + C97(3) + C98(3)
   + C99(4) + C100(12) + C101(3) + C102(3) + C103(4) + C104(11) + C105(10)
   + C106(5) + C107(2) + C108(6) + C109(3) + C110(3) + C111(3) + C112(3)
   + C113(9) + C114(3) + C115(11) + C116(3) + C117(5) + C118(4) = 1
 c38: C119(6) + C120(16) + C121(1) + C122(13) + C123(13) + C124(13)
   + C125(4) + C126(8) + C127(8) + C128(4) + C129(5) + C130(10) + C131(6)
   + C132(2) + C133(9) + C134(2) + C135(5) + C136(4) + C137(9) + C138(2)
   + C139(2) + C140(5) + C141(3) + C142(11) + C143(11) + C144(2) + C145(3)
   + C146(3) + C147(2) + C148(4) + C149(7) + C150(2) + C151(3) + C152(2)
   + C153(4) + C154(3) + C155(12) = 1
 c39: C156(6) + C157(16) + C158(16) + C159(1) + C160(16) + C161(18)
   + C162(16) + C163(13) + C164(15) + C165(13) + C166(13) + C167(9)
   + C168(8) + C169(12) + C170(11) + C171(11) + C172(17) + C173(11)
   + C174(7) + C175(10) + C176(12) + C177(6) + C178(13) + C179(13)
   + C180(14) + C181(11) + C182(13) + C183(19) + C184(7) + C185(10)
   + C186(17) + C187(16) + C188(12) + C189(3) + C190(13) + C191(17)
   + C192(7) + C193(15) + C194(14) + C195(13) + C196(9) + C197(9)
   + C198(10) + C199(14) + C200(15) + C201(12) + C202(7) = 1
 c40: C203(4) + C204(15) + C205(15) + C206(1) + C207(11) + C208(15)
   + C209(12) + C210(15) + C211(3) + C212(9) + C213(12) + C214(12)
   + C215(14) + C216(6) + C217(5) + C218(3) + C219(10) + C220(13)
   + C221(12) + C222(11) + C223(10) + C224(8) + C225(4) + C226(2) + C227(7)
   + C228(6) + C229(6) + C230(8) + C231(7) + C232(7) + C233(10) + C234(8)
   + C235(11) + C236(7) + C237(4) + C238(2) + C239(11) + C240(9) + C241(10)
   + C242(9) + C243(10) + C244(9) + C245(11) = 1
 c41: C246(6) + C247(17) + C248(17) + C249(1) + C250(16) + C251(14)
   + C252(16) + C253(16) + C254(15) + C255(12) + C256(14) + C257(4)
   + C258(11) + C259(5) + C260(9) + C261(8) + C262(13) + C263(4) + C264(9)
   + C265(3) + C266(6) + C267(5) + C268(5) + C269(7) + C270(3) + C271(7)
   + C272(7) + C273(9) + C274(8) + C275(7) + C276(4) + C277(3) + C278(7)
   + C279(7) + C280(7) + C281(10) + C282(4) + C283(7) + C284(7) + C285(5)
   + C286(6) + C287(6) + C288(7) + C289(5) + C290(4) + C291(2) + C292(6)
   + C293(7) = 1
Bounds
End
